Name:		CBMix11
Optimal value:	-1
#Vehicles:	-1
Capacity:	1866
Depot Node:	1
#Nodes:		69
#Edges:		6
#Arcs:		229
#Required N:	65
#Required E:	6
#Required A:	11

ReN.	DEMAND	S. COST
N2	150	150
N3	377	377
N4	289	289
N5	298	298
N6	271	271
N7	170	170
N8	190	190
N9	82	82
N10	212	212
N11	410	410
N12	132	132
N14	235	235
N15	315	315
N16	306	306
N17	443	443
N18	469	469
N19	80	80
N20	298	298
N21	51	51
N22	488	488
N23	411	411
N24	74	74
N25	133	133
N26	98	98
N27	96	96
N28	373	373
N29	252	252
N31	92	92
N32	401	401
N33	433	433
N34	66	66
N35	109	109
N36	178	178
N37	231	231
N38	200	200
N39	498	498
N40	465	465
N41	105	105
N42	294	294
N43	236	236
N44	387	387
N45	123	123
N46	155	155
N47	232	232
N48	246	246
N49	376	376
N50	121	121
N51	53	53
N52	261	261
N53	196	196
N55	300	300
N56	378	378
N57	215	215
N58	447	447
N59	445	445
N60	466	466
N61	187	187
N62	364	364
N63	374	374
N64	390	390
N65	299	299
N66	79	79
N67	294	294
N68	261	261
N69	165	165

ReE.	From N.	To N.	T. COST	DEMAND	S. COST
E1	5	12	17	365	382
E2	18	19	18	331	349
E3	28	38	15	236	251
E4	47	48	18	377	395
E5	49	64	48	324	372
E6	55	56	18	119	137

EDGE	FROM N.	TO N.	T. COST

ReA.	FROM N.	TO N.	T. COST	DEMAND	S. COST
A1	4	11	18	366	384
A2	11	5	25	289	314
A3	16	1	36	372	408
A4	21	20	20	18	38
A5	35	48	35	245	280
A6	39	40	21	199	220
A7	51	50	19	314	333
A8	59	50	19	341	360
A9	62	54	14	171	185
A10	63	55	22	104	126
A11	65	66	36	179	215

ARC	FROM N.	TO N.	T. COST
NrA1	1	2	20
NrA2	1	9	31
NrA3	1	16	36
NrA4	2	1	20
NrA5	2	3	22
NrA6	2	9	19
NrA7	3	2	22
NrA8	3	4	18
NrA9	3	10	18
NrA10	4	3	18
NrA11	4	5	17
NrA12	5	4	17
NrA13	5	6	37
NrA14	5	11	25
NrA15	6	5	37
NrA16	6	7	39
NrA17	6	13	15
NrA18	7	8	37
NrA19	7	14	20
NrA20	8	15	20
NrA21	9	1	31
NrA22	9	2	19
NrA23	9	17	17
NrA24	9	18	29
NrA25	10	3	18
NrA26	10	11	18
NrA27	10	18	24
NrA28	11	4	18
NrA29	11	10	18
NrA30	11	12	17
NrA31	11	18	29
NrA32	11	19	20
NrA33	12	11	17
NrA34	12	13	39
NrA35	12	20	23
NrA36	13	6	15
NrA37	13	12	39
NrA38	13	22	23
NrA39	14	7	20
NrA40	14	15	39
NrA41	14	24	22
NrA42	15	8	20
NrA43	15	14	39
NrA44	15	25	21
NrA45	16	17	18
NrA46	16	26	21
NrA47	17	16	18
NrA48	17	18	20
NrA49	18	9	29
NrA50	18	10	24
NrA51	18	17	20
NrA52	18	27	15
NrA53	19	11	20
NrA54	19	20	20
NrA55	19	35	39
NrA56	20	12	23
NrA57	20	19	20
NrA58	20	21	20
NrA59	21	22	21
NrA60	21	37	40
NrA61	22	13	23
NrA62	22	21	21
NrA63	22	23	18
NrA64	22	28	18
NrA65	23	22	18
NrA66	23	29	19
NrA67	24	14	22
NrA68	24	23	21
NrA69	24	25	39
NrA70	24	30	15
NrA71	25	15	21
NrA72	25	24	39
NrA73	25	31	19
NrA74	26	16	21
NrA75	26	27	34
NrA76	26	32	22
NrA77	27	18	15
NrA78	27	26	34
NrA79	27	34	21
NrA80	28	22	18
NrA81	28	29	19
NrA82	29	23	19
NrA83	29	28	19
NrA84	29	30	22
NrA85	29	39	21
NrA86	30	24	15
NrA87	30	29	22
NrA88	30	31	35
NrA89	30	40	23
NrA90	31	25	19
NrA91	31	41	19
NrA92	32	26	22
NrA93	32	33	21
NrA94	32	45	34
NrA95	33	32	21
NrA96	33	34	20
NrA97	33	46	41
NrA98	34	27	21
NrA99	34	33	20
NrA100	34	35	18
NrA101	34	47	39
NrA102	35	19	39
NrA103	35	34	18
NrA104	35	36	22
NrA105	36	20	35
NrA106	36	35	22
NrA107	36	37	19
NrA108	36	49	38
NrA109	37	21	40
NrA110	37	36	19
NrA111	37	38	18
NrA112	38	37	18
NrA113	38	39	19
NrA114	38	50	43
NrA115	39	29	21
NrA116	39	38	19
NrA117	39	51	37
NrA118	40	30	23
NrA119	40	39	21
NrA120	40	42	16
NrA121	41	31	19
NrA122	41	40	39
NrA123	41	43	25
NrA124	41	44	20
NrA125	42	40	16
NrA126	42	43	20
NrA127	42	52	21
NrA128	43	41	25
NrA129	43	42	20
NrA130	43	44	18
NrA131	43	52	31
NrA132	44	41	20
NrA133	44	43	18
NrA134	44	53	18
NrA135	45	32	34
NrA136	45	46	20
NrA137	45	54	20
NrA138	46	33	41
NrA139	46	45	20
NrA140	46	47	18
NrA141	46	55	17
NrA142	47	34	39
NrA143	47	46	18
NrA144	47	55	23
NrA145	47	56	20
NrA146	48	35	35
NrA147	48	49	18
NrA148	49	36	38
NrA149	49	48	18
NrA150	49	50	41
NrA151	49	57	18
NrA152	49	58	28
NrA153	50	38	43
NrA154	50	49	41
NrA155	50	51	19
NrA156	50	59	19
NrA157	50	60	27
NrA158	51	39	37
NrA159	51	52	20
NrA160	51	60	23
NrA161	52	42	21
NrA162	52	43	31
NrA163	52	51	20
NrA164	52	53	35
NrA165	52	61	17
NrA166	53	44	18
NrA167	53	52	35
NrA168	53	69	39
NrA169	54	45	20
NrA170	54	55	25
NrA171	54	62	14
NrA172	55	46	17
NrA173	55	47	23
NrA174	55	54	25
NrA175	55	62	27
NrA176	55	63	22
NrA177	56	47	20
NrA178	56	64	17
NrA179	57	49	18
NrA180	57	58	18
NrA181	57	65	19
NrA182	58	49	28
NrA183	58	57	18
NrA184	58	59	16
NrA185	58	66	23
NrA186	59	58	16
NrA187	59	60	20
NrA188	59	66	14
NrA189	60	50	27
NrA190	60	51	23
NrA191	60	59	20
NrA192	60	61	20
NrA193	60	67	18
NrA194	60	68	27
NrA195	61	52	17
NrA196	61	60	20
NrA197	61	68	17
NrA198	62	55	27
NrA199	62	63	19
NrA200	63	64	19
NrA201	64	56	17
NrA202	64	63	19
NrA203	64	65	39
NrA204	65	57	19
NrA205	65	64	39
NrA206	66	58	23
NrA207	66	59	14
NrA208	66	65	36
NrA209	66	67	22
NrA210	67	60	18
NrA211	67	66	22
NrA212	67	68	18
NrA213	68	60	27
NrA214	68	61	17
NrA215	68	67	18
NrA216	68	69	36
NrA217	69	53	39
NrA218	69	68	36

